data/processed_heuristic-threshold/instances/1/9/ds_603_courier_2618/pairwise.tsp
NAME: ds_603_courier_2618
TYPE: TSP
COMMENT: nil
DIMENSION: 10
EDGE_WEIGHT_TYPE: EXPLICIT
EDGE_WEIGHT_FORMAT: FULL_MATRIX
EDGE_WEIGHT_SECTION
9999 2308 2277 2293 2270 2273 2148 2113 402 1081 
2308 9999 156 33 61 501 206 344 2708 3388 
2277 156 9999 182 199 345 131 457 2673 3353 
2293 33 182 9999 29 527 214 311 2693 3373 
2270 61 199 29 9999 543 213 283 2671 3351 
2273 501 345 527 543 9999 376 773 2656 3328 
2148 206 131 214 213 376 9999 398 2545 3225 
2113 344 457 311 283 773 398 9999 2515 3192 
402 2708 2673 2693 2671 2656 2545 2515 9999 680 
1081 3388 3353 3373 3351 3328 3225 3192 680 9999 
