data/processed_heuristic-threshold/instances/1/9/ds_603_courier_2618/pairwise.sol
10
0 8 9 5 6 2 1 3 4 7 
